data/solutions/recovery/wellformed/moderate/flexible/wellformed_moderate_instance64/31.sol
Elapsed time: 25.89
Upper bound: 4861.0
Planning weighted value: 128807.0
C[0]=4861.0
C[1]=4861.0
C[2]=4861.0
C[3]=4861.0
C[4]=0.0
y[0]=1
y[1]=3
y[2]=2
y[3]=2
y[4]=3
y[5]=2
y[6]=2
y[7]=2
y[8]=2
y[9]=1
y[10]=1
y[11]=0
y[12]=3
y[13]=1
y[14]=2
y[15]=3
y[16]=3
y[17]=1
y[18]=3
y[19]=1
y[20]=1
y[21]=0
y[22]=0
y[23]=1
y[24]=2
y[25]=1
y[26]=1
y[27]=0
y[28]=0
y[29]=3
y[30]=2
y[31]=3
y[32]=2
y[33]=0
y[34]=0
y[35]=1
y[36]=1
y[37]=0
y[38]=3
y[39]=3
y[40]=0
