data/solutions/recovery/wellformed/moderate/flexible/wellformed_moderate_instance64/31.log

Log started (V12.6.3.0) Fri Apr 20 20:16:36 2018

New value for default parallel thread count: 1

Problem '/tmp/tmpYVHlJ7.pyomo.lp' read.
Read time = 0.00 sec. (0.08 ticks)

Problem name         : /tmp/tmpYVHlJ7.pyomo.lp
Objective sense      : Minimize
Variables            :     212  [Nneg: 1,  Binary: 205,  General Integer: 6]
Objective nonzeros   :       1
Linear constraints   :      94  [Less: 46,  Equal: 48]
  Nonzeros           :    5203
  RHS nonzeros       :      83

Variables            : Min LB: 0.000000         Max UB: 1.000000       
Objective nonzeros   : Min   : 1.000000         Max   : 1.000000       
Linear constraints   :
  Nonzeros           : Min   : 1.000000         Max   : 1963.000       
  RHS nonzeros       : Min   : 1.000000         Max   : 5.000000       
Tried aggregator 2 times.
MIP Presolve eliminated 44 rows and 55 columns.
Aggregator did 8 substitutions.
Reduced MIP has 42 rows, 149 columns, and 375 nonzeros.
Reduced MIP has 148 binaries, 1 generals, 0 SOSs, and 0 indicators.
Presolve time = 0.00 sec. (1.35 ticks)
Found incumbent of value 19444.000000 after 0.00 sec. (1.64 ticks)
Probing time = 0.00 sec. (0.12 ticks)
Cover probing fixed 0 vars, tightened 6 bounds.
Tried aggregator 1 time.
Reduced MIP has 42 rows, 149 columns, and 375 nonzeros.
Reduced MIP has 148 binaries, 1 generals, 0 SOSs, and 0 indicators.
Presolve time = 0.00 sec. (0.27 ticks)
Probing time = 0.00 sec. (0.08 ticks)
Clique table members: 37.
MIP emphasis: balance optimality and feasibility.
MIP search method: dynamic search.
Parallel mode: none, using 1 thread.
Root relaxation solution time = 0.00 sec. (0.12 ticks)

        Nodes                                         Cuts/
   Node  Left     Objective  IInf  Best Integer    Best Bound    ItCnt     Gap

*     0+    0                        19444.0000     1963.0000            89.90%
      0     0     4861.0000     5    19444.0000     4861.0000        7   75.00%
*     0+    0                         5780.0000     4861.0000            15.90%
      0     0     4861.0000    10     5780.0000      Fract: 4       12   15.90%
*     0+    0                         5424.0000     4861.0000            10.38%
      0     0     4861.0000     8     5424.0000       Cuts: 3       16   10.38%
*     0+    0                         5160.0000     4861.0000             5.79%
      0     0     4861.0000     9     5160.0000    MIRcuts: 2       18    5.79%
*     0+    0                         5014.0000     4861.0000             3.05%
*     0+    0                         4983.0000     4861.0000             2.45%
      0     2     4861.0000     9     4983.0000     4861.0000       18    2.45%
Elapsed time = 0.01 sec. (6.99 ticks, tree = 0.01 MB, solutions = 6)
*    40+   31                         4966.0000     4861.0000             2.11%
*    50    35      integral     0     4929.0000     4861.0000      138    1.38%
*    74    41      integral     0     4922.0000     4861.0000      175    1.24%
*    75    40      integral     0     4921.0000     4861.0000      178    1.22%
*   140+   79                         4894.0000     4861.0000             0.67%
*   240+  130                         4882.0000     4861.0000             0.43%
*   274   134      integral     0     4881.0000     4861.0000      579    0.41%
*   320+  135                         4879.0000     4861.0000             0.37%
*   860+  306                         4874.0000     4861.0000             0.27%
*  1400   377      integral     0     4868.0000     4861.0000     3577    0.14%
*  1500+  398                         4866.0000     4861.0000             0.10%
*  1913+  328                         4865.0000     4861.0000             0.08%
*  2113+  377                         4864.0000     4861.0000             0.06%
   2238   446        cutoff           4864.0000     4861.0000     5359    0.06%
   2239   447     4861.0000     6     4864.0000     4861.0000     5360    0.06%
   2240   448     4861.0000     6     4864.0000     4861.0000     5361    0.06%
   2241   449     4861.0000     6     4864.0000     4861.0000     5362    0.06%
   2242   450     4861.0000     6     4864.0000     4861.0000     5363    0.06%
   2243   451     4861.0000     6     4864.0000     4861.0000     5364    0.06%
   2244   452     4861.0000     6     4864.0000     4861.0000     5365    0.06%
   2245   453     4861.0000     6     4864.0000     4861.0000     5366    0.06%
   2246   454     4861.0000     6     4864.0000     4861.0000     5367    0.06%
*  2413+  536                         4863.0000     4861.0000             0.04%
*  2713+  682                         4862.0000     4861.0000             0.02%
   8605  3059     4861.0000     6     4862.0000     4861.0000    17992    0.02%
Elapsed time = 1.28 sec. (961.06 ticks, tree = 0.88 MB, solutions = 21)
  19489  4887     4861.0000     5     4862.0000     4861.0000    42239    0.02%
  19490  4888     4861.0000     5     4862.0000     4861.0000    42240    0.02%
  19491  4889     4861.0000     6     4862.0000     4861.0000    42242    0.02%
  19492  4890     4861.0000     5     4862.0000     4861.0000    42244    0.02%
  19493  4891     4861.0000     5     4862.0000     4861.0000    42245    0.02%
  19494  4892     4861.0000     5     4862.0000     4861.0000    42246    0.02%
  19495  4893     4861.0000     6     4862.0000     4861.0000    42249    0.02%
  19496  4894     4861.0000     6     4862.0000     4861.0000    42250    0.02%
  19497  4895     4861.0000     6     4862.0000     4861.0000    42252    0.02%
  19498  4896     4861.0000     5     4862.0000     4861.0000    42253    0.02%
Elapsed time = 2.56 sec. (1915.01 ticks, tree = 1.45 MB, solutions = 21)
  33347  7703     4861.0000     6     4862.0000     4861.0000    71243    0.02%
  33348  7704     4861.0000     5     4862.0000     4861.0000    71244    0.02%
  33349  7705     4861.0000     6     4862.0000     4861.0000    71245    0.02%
  33350  7706     4861.0000     6     4862.0000     4861.0000    71246    0.02%
  33351  7707     4861.0000     6     4862.0000     4861.0000    71247    0.02%
  33352  7708     4861.0000     6     4862.0000     4861.0000    71248    0.02%
  33353  7709     4861.0000     6     4862.0000     4861.0000    71249    0.02%
  33354  7710     4861.0000     6     4862.0000     4861.0000    71250    0.02%
  33355  7711     4861.0000     6     4862.0000     4861.0000    71251    0.02%
  33356  7712     4861.0000     6     4862.0000     4861.0000    71252    0.02%
Elapsed time = 3.79 sec. (2868.97 ticks, tree = 2.20 MB, solutions = 21)
  47128  8196    infeasible           4862.0000     4861.0000   100753    0.02%
  47129  8195    infeasible           4862.0000     4861.0000   100756    0.02%
  47130  8196     4861.0000     6     4862.0000     4861.0000   100757    0.02%
  47131  8197     4861.0000     6     4862.0000     4861.0000   100758    0.02%
  47132  8197     4861.0000     8     4862.0000     4861.0000   100762    0.02%
  47133  8198     4861.0000     6     4862.0000     4861.0000   100763    0.02%
  47134  8199     4861.0000     6     4862.0000     4861.0000   100764    0.02%
  47135  8200     4861.0000     6     4862.0000     4861.0000   100767    0.02%
  47136  8201     4861.0000     6     4862.0000     4861.0000   100768    0.02%
  47137  8200    infeasible           4862.0000     4861.0000   100768    0.02%
Elapsed time = 5.02 sec. (3823.51 ticks, tree = 2.56 MB, solutions = 21)
  61853 12153    infeasible           4862.0000     4861.0000   132874    0.02%
  61854 12152    infeasible           4862.0000     4861.0000   132874    0.02%
  61855 12151    infeasible           4862.0000     4861.0000   132883    0.02%
  61856 12150    infeasible           4862.0000     4861.0000   132885    0.02%
  61857 12149    infeasible           4862.0000     4861.0000   132889    0.02%
  61858 12150     4861.0000     7     4862.0000     4861.0000   132893    0.02%
  61859 12151     4861.0000     8     4862.0000     4861.0000   132896    0.02%
  61860 12152     4861.0000     6     4862.0000     4861.0000   132897    0.02%
  61861 12153     4861.0000     6     4862.0000     4861.0000   132898    0.02%
  61862 12152    infeasible           4862.0000     4861.0000   132898    0.02%
Elapsed time = 6.28 sec. (4778.41 ticks, tree = 3.56 MB, solutions = 21)
  75699 14135     4861.0000     4     4862.0000     4861.0000   162721    0.02%
  75700 14136     4861.0000     4     4862.0000     4861.0000   162726    0.02%
  75701 14137     4861.0000     4     4862.0000     4861.0000   162729    0.02%
  75702 14138     4861.0000     4     4862.0000     4861.0000   162733    0.02%
  75703 14139     4861.0000     4     4862.0000     4861.0000   162734    0.02%
  75704 14140     4861.0000     8     4862.0000     4861.0000   162736    0.02%
  75705 14139    infeasible           4862.0000     4861.0000   162738    0.02%
  75706 14138    infeasible           4862.0000     4861.0000   162738    0.02%
  75707 14139     4861.0000     4     4862.0000     4861.0000   162739    0.02%
  75708 14140     4861.0000     8     4862.0000     4861.0000   162741    0.02%
Elapsed time = 7.53 sec. (5732.77 ticks, tree = 4.07 MB, solutions = 21)
  88683 14713    infeasible           4862.0000     4861.0000   189204    0.02%
  88684 14714     4861.0000     8     4862.0000     4861.0000   189207    0.02%
  88685 14715     4861.0000     6     4862.0000     4861.0000   189209    0.02%
  88686 14714    infeasible           4862.0000     4861.0000   189210    0.02%
  88687 14713    infeasible           4862.0000     4861.0000   189211    0.02%
  88688 14712    infeasible           4862.0000     4861.0000   189218    0.02%
  88689 14713     4861.0000     6     4862.0000     4861.0000   189219    0.02%
  88690 14714     4861.0000     6     4862.0000     4861.0000   189221    0.02%
  88691 14715     4861.0000     6     4862.0000     4861.0000   189222    0.02%
  88692 14716     4861.0000     6     4862.0000     4861.0000   189223    0.02%
Elapsed time = 8.76 sec. (6686.87 ticks, tree = 4.23 MB, solutions = 21)
 102999 15425    infeasible           4862.0000     4861.0000   218092    0.02%
 103000 15424    infeasible           4862.0000     4861.0000   218094    0.02%
 103001 15423    infeasible           4862.0000     4861.0000   218094    0.02%
 103002 15422    infeasible           4862.0000     4861.0000   218096    0.02%
 103003 15421    infeasible           4862.0000     4861.0000   218096    0.02%
 103004 15422     4861.0000     6     4862.0000     4861.0000   218097    0.02%
 103005 15423     4861.0000     6     4862.0000     4861.0000   218098    0.02%
 103006 15424     4861.0000     6     4862.0000     4861.0000   218099    0.02%
 103007 15425     4861.0000     6     4862.0000     4861.0000   218100    0.02%
 103008 15425     4861.0000     6     4862.0000     4861.0000   218103    0.02%
Elapsed time = 10.00 sec. (7641.42 ticks, tree = 4.41 MB, solutions = 21)
 116507 16188     4861.0000     6     4862.0000     4861.0000   245891    0.02%
 116508 16189     4861.0000     6     4862.0000     4861.0000   245892    0.02%
 116509 16190     4861.0000     6     4862.0000     4861.0000   245894    0.02%
 116510 16191     4861.0000     6     4862.0000     4861.0000   245895    0.02%
 116511 16192     4861.0000     6     4862.0000     4861.0000   245897    0.02%
 116512 16191    infeasible           4862.0000     4861.0000   245899    0.02%
 116513 16192     4861.0000     5     4862.0000     4861.0000   245900    0.02%
 116514 16193     4861.0000     6     4862.0000     4861.0000   245901    0.02%
 116515 16194     4861.0000     6     4862.0000     4861.0000   245903    0.02%
 116516 16195     4861.0000     6     4862.0000     4861.0000   245905    0.02%
Elapsed time = 11.24 sec. (8595.65 ticks, tree = 4.62 MB, solutions = 21)
 131801 21040     4861.0000     5     4862.0000     4861.0000   278631    0.02%
 131802 21041     4861.0000     5     4862.0000     4861.0000   278634    0.02%
 131803 21042     4861.0000     6     4862.0000     4861.0000   278635    0.02%
 131804 21043     4861.0000     8     4862.0000     4861.0000   278637    0.02%
 131805 21044     4861.0000     6     4862.0000     4861.0000   278638    0.02%
 131806 21045     4861.0000     6     4862.0000     4861.0000   278639    0.02%
 131807 21046     4861.0000     6     4862.0000     4861.0000   278640    0.02%
 131808 21047     4861.0000     6     4862.0000     4861.0000   278641    0.02%
 131809 21048     4861.0000     6     4862.0000     4861.0000   278642    0.02%
 171947 26525     4861.0000     6     4862.0000     4861.0000   369671    0.02%
Elapsed time = 16.19 sec. (12410.38 ticks, tree = 7.76 MB, solutions = 21)
 225673 29840     4861.0000     6     4862.0000     4861.0000   486723    0.02%
 225674 29841     4861.0000     6     4862.0000     4861.0000   486724    0.02%
 225675 29840    infeasible           4862.0000     4861.0000   486734    0.02%
 225676 29839    infeasible           4862.0000     4861.0000   486741    0.02%
 225677 29840     4861.0000     6     4862.0000     4861.0000   486743    0.02%
 225678 29841     4861.0000     6     4862.0000     4861.0000   486745    0.02%
 225679 29842     4861.0000     6     4862.0000     4861.0000   486746    0.02%
 225680 29843     4861.0000     6     4862.0000     4861.0000   486748    0.02%
 225681 29844     4861.0000     6     4862.0000     4861.0000   486749    0.02%
 225682 29845     4861.0000     6     4862.0000     4861.0000   486750    0.02%
Elapsed time = 21.12 sec. (16225.54 ticks, tree = 8.63 MB, solutions = 21)
*280587     0      integral     0     4861.0000     4861.0000   608355    0.00%

Cover cuts applied:  2
Mixed integer rounding cuts applied:  1

Root node processing (before b&c):
  Real time             =    0.01 sec. (7.04 ticks)
Sequential b&c:
  Real time             =   25.87 sec. (19927.91 ticks)
                          ------------
Total (root+branch&cut) =   25.88 sec. (19934.95 ticks)

Solution pool: 22 solutions saved.

MIP - Integer optimal solution:  Objective =  4.8610000000e+03
Solution time =   25.88 sec.  Iterations = 608355  Nodes = 280588
Deterministic time = 19934.95 ticks  (770.27 ticks/sec)


Incumbent solution written to file '/tmp/tmpPkPiS3.cplex.sol'.
